30 61
28
9 24 9 19
9 8 21 14
9 11 0 19
9 17 0 30
4 24 26 22
4 8 0 5
1 6 18 3
1 5 3 0
4 17 22 22
3 6 0 13
3 5 15 14
12 5 3 14
12 13 18 48
14 14 4 0
2 14 18 25
2 2 28 46
8 3 19 2
8 9 18 39
12 14 0 47
12 2 18 0
6 3 9 44
6 9 21 5
2 5 1 0
2 13 20 26
3 18 15 43
3 14 12 47
3 16 18 9
3 12 27 2
